language ESSENCE' 1.0
letting lastdx=102
letting cage be [
[28,7,11,7,12,7,13,7,14,0,0],
[40,1,10,1,9,2,9,2,8,0,0],
[21,4,3,3,3,0,0, 0,0, 0,0],
[4,9,3,0,0, 0,0, 0,0, 0,0],
[4,11,7,0,0, 0,0, 0,0, 0,0],
[41,8,15,8,16,9,16,9,15,10,15],
[35,2,7,2,6,1,6,1,7,1,8],
[16,7,9,6,9,0,0, 0,0, 0,0],
[6,7,1,0,0, 0,0, 0,0, 0,0],
[50,7,2,7,3,8,3,8,4,8,5],
[1,14,12,0,0, 0,0, 0,0, 0,0],
[13,13,1,0,0, 0,0, 0,0, 0,0],
[14,2,11,3,11,0,0, 0,0, 0,0],
[45,11,11,11,12,12,12,13,12,13,11],
[7,16,1,0,0, 0,0, 0,0, 0,0],
[2,11,3,0,0, 0,0, 0,0, 0,0],
[13,9,10,8,10,0,0, 0,0, 0,0],
[6,15,3,0,0, 0,0, 0,0, 0,0],
[5,3,1,0,0, 0,0, 0,0, 0,0],
[37,5,11,6,11,6,12,6,13,0,0],
[48,7,4,7,5,7,6,8,6,8,7],
[50,11,4,10,4,10,3,10,2,0,0],
[13,5,7,0,0, 0,0, 0,0, 0,0],
[52,1,16,1,15,2,15,2,16,0,0],
[3,3,9,0,0, 0,0, 0,0, 0,0],
[11,1,11,1,12,0,0, 0,0, 0,0],
[15,3,7,4,7,0,0, 0,0, 0,0],
[12,1,1,0,0, 0,0, 0,0, 0,0],
[9,4,14,0,0, 0,0, 0,0, 0,0],
[40,16,3,16,4,16,5,16,6,15,6],
[9,14,3,0,0, 0,0, 0,0, 0,0],
[17,9,4,9,5,0,0, 0,0, 0,0],
[6,4,10,5,10,0,0, 0,0, 0,0],
[30,6,6,5,6,0,0, 0,0, 0,0],
[27,11,9,10,9,10,10,0,0, 0,0],
[24,15,15,15,16,16,16,0,0, 0,0],
[14,11,1,0,0, 0,0, 0,0, 0,0],
[2,10,6,0,0, 0,0, 0,0, 0,0],
[27,16,11,16,12,15,12,15,11,0,0],
[3,9,11,0,0, 0,0, 0,0, 0,0],
[27,5,4,6,4,6,5,0,0, 0,0],
[31,6,1,5,1,5,2,4,2,4,1],
[27,9,1,10,1,0,0, 0,0, 0,0],
[6,10,13,0,0, 0,0, 0,0, 0,0],
[16,11,14,0,0, 0,0, 0,0, 0,0],
[20,6,10,7,10,0,0, 0,0, 0,0],
[35,7,16,6,16,6,15,7,15,0,0],
[6,13,10,0,0, 0,0, 0,0, 0,0],
[28,12,11,12,10,11,10,12,9,0,0],
[20,14,13,13,13,0,0, 0,0, 0,0],
[2,13,4,0,0, 0,0, 0,0, 0,0],
[43,13,14,12,14,12,13,11,13,0,0],
[27,11,2,12,2,12,1,12,3,12,4],
[6,2,5,0,0, 0,0, 0,0, 0,0],
[7,3,16,0,0, 0,0, 0,0, 0,0],
[13,15,5,0,0, 0,0, 0,0, 0,0],
[3,7,8,0,0, 0,0, 0,0, 0,0],
[6,3,14,0,0, 0,0, 0,0, 0,0],
[31,12,15,11,15,11,16,10,16,12,16],
[20,14,1,14,2,0,0, 0,0, 0,0],
[7,14,11,0,0, 0,0, 0,0, 0,0],
[49,10,14,9,14,8,14,8,13,9,13],
[10,8,1,8,2,9,2,0,0, 0,0],
[20,4,15,3,15,4,16,0,0, 0,0],
[27,10,7,10,8,11,8,0,0, 0,0],
[30,9,6,9,7,9,8,9,9,0,0],
[30,15,2,15,1,16,2,0,0, 0,0],
[26,6,7,7,7,6,8,5,8,0,0],
[24,14,9,13,9,13,8,0,0, 0,0],
[10,5,9,0,0, 0,0, 0,0, 0,0],
[57,16,8,15,8,15,9,16,9,16,10],
[32,16,14,16,15,16,13,15,13,0,0],
[24,8,9,8,8,0,0, 0,0, 0,0],
[9,1,2,0,0, 0,0, 0,0, 0,0],
[11,1,4,1,5,0,0, 0,0, 0,0],
[16,1,13,1,14,2,14,0,0, 0,0],
[3,2,1,0,0, 0,0, 0,0, 0,0],
[13,2,2,3,2,0,0, 0,0, 0,0],
[24,2,10,3,10,0,0, 0,0, 0,0],
[47,2,12,3,12,4,12,4,11,0,0],
[13,2,13,0,0, 0,0, 0,0, 0,0],
[45,3,6,4,6,4,5,4,4,5,5],
[10,3,8,0,0, 0,0, 0,0, 0,0],
[1,3,13,0,0, 0,0, 0,0, 0,0],
[14,4,8,4,9,0,0, 0,0, 0,0],
[12,4,13,0,0, 0,0, 0,0, 0,0],
[15,5,3,0,0, 0,0, 0,0, 0,0],
[28,5,12,5,13,5,14,6,14,0,0],
[17,5,15,5,16,0,0, 0,0, 0,0],
[17,6,2,6,3,0,0, 0,0, 0,0],
[26,8,11,8,12,0,0, 0,0, 0,0],
[29,9,12,10,12,10,11,0,0, 0,0],
[9,10,5,0,0, 0,0, 0,0, 0,0],
[14,11,5,11,6,0,0, 0,0, 0,0],
[29,12,7,12,8,0,0, 0,0, 0,0],
[15,13,2,13,3,0,0, 0,0, 0,0],
[4,13,6,0,0, 0,0, 0,0, 0,0],
[35,13,7,14,7,14,8,0,0, 0,0],
[43,13,15,14,15,14,16,13,16,0,0],
[15,14,4,15,4,0,0, 0,0, 0,0],
[20,14,10,15,10,0,0, 0,0, 0,0],
[5,14,14,15,14,0,0, 0,0, 0,0],
[15,15,7,16,7,0,0, 0,0, 0,0]
]
